webassembly/ejemplos_dzn/folder16_json_15.dzn
TERM = { '.', 's(5)', 'in_1', 'in_6', 'in_0', 's(4)', 'in_3', 's(1)', 's(7)', 's(2)', 's(9)', 'in_2', 's(8)', 's(6)', 's(0)', 's(3)', 's(11)', 'local_0', 'local_1', 'in_4', 'in_5', 's(10)'};
null = '.';
s = 16;
n = 12;
ndeps = 11;
max_registers_sz = 5;
NR = 2;
registers = [|'local_0', 's(9)', |'local_1', 's(11)'|];
dependencies = [|'i32.store_1', 'i32.load8_s_3', |'i32.store_1', 'i32.load8_s_4', |'i32.load8_s_3', 'i32.store8_8', |'i32.load8_s_4', 'i32.store8_8', |'i32.store8_8', 'i32.load8_s_10', |'i32.store8_8', 'i32.load16_u_11', |'i32.store8_8', 'i32.load8_u_12', |'i32.load8_s_10', 'call[function_index(0)]_13', |'i32.load16_u_11', 'call[function_index(0)]_13', |'i32.load8_u_12', 'call[function_index(0)]_13', |'call[function_index(0)]_13', 'i32.load_15'|];
GET_ENUM = { GET1, GET2, GET3, GET4, GET5, GET6, GET7};
SET_ENUM = { SET1, SET2, SET3, SET4, SET5, SET6, SET7};
TEE_ENUM = { TEE1, TEE2, TEE3, TEE4, TEE5, TEE6, TEE7};
N = 12;
OP = { 'call[function_index(0)]_13', 'i32.store_1', 'i32.load8_s_3', 'i32.load8_s_4', 'i32.const_0', 'i32.add_0', 'i32.store8_8', 'i32.sub_0', 'i32.load8_s_10', 'i32.load16_u_11', 'i32.load8_u_12', 'i32.load_15' };
in_ops = [2, 2, 1, 1, 0, 2, 2, 2, 1, 1, 1, 1 ];
out_ops = [3, 0, 1, 1, 1, 1, 0, 1, 1, 1, 1, 1 ];
in1 = ['s(6)', 'in_1', 'in_0', 's(0)', '.', 's(1)', 's(11)', 'in_4', 's(3)', 's(4)', 's(5)', 's(8)' ];
in2 = ['in_6', 'in_2', '.', '.', '.', 'in_3', 's(2)', 'in_5', '.', '.', '.', '.' ];
in3 = ['.', '.', '.', '.', '.', '.', '.', '.', '.', '.', '.', '.' ];
out1 = ['s(9)', '.', 's(0)', 's(1)', 's(11)', 's(2)', '.', 's(3)', 's(4)', 's(5)', 's(6)', 's(10)' ];
out2 = ['s(8)', '.', '.', '.', '.', '.', '.', '.', '.', '.', '.', '.' ];
out3 = ['s(7)', '.', '.', '.', '.', '.', '.', '.', '.', '.', '.', '.' ];
comm = [false, false, false, false, false, true, false, false, false, false, false, false ];
gas = [1, 1, 1, 1, 1, 1, 1, 1, 1, 1, 1, 1 ];
sz = [1, 1, 1, 1, 1, 1, 1, 1, 1, 1, 1, 1 ];
stor = [true, true, false, false, false, false, true, false, false, false, false, false ];
lb = [ 1, 1, 1, 1, 1, 1, 1, 1, 1, 1, 1, 1 ];
ub = [ 16, 16, 16, 16, 16, 16, 16, 16, 16, 16, 16, 16 ];
startstack = [ 'in_0', 'in_1', 'in_2', 'in_3', 'in_4', 'in_5', 'in_6', null, null, null, null, null ];
endstack = [ 's(10)', 's(7)', null, null, null, null, null, null, null, null, null, null ];
